
Gurobi 6.5.2 (win64) logging started 07/24/16 17:52:04


Gurobi 6.5.2 (win64) logging started 07/24/16 17:52:04

Optimize a model with 4914 rows, 862 columns and 11889 nonzeros
Coefficient statistics:
  Matrix range    [6e-08, 1e+03]
  Objective range [1e+00, 1e+00]
  Bounds range    [1e+00, 1e+00]
  RHS range       [6e-06, 2e+03]
Presolve removed 4659 rows and 598 columns
Presolve time: 0.00s
Presolved: 255 rows, 264 columns, 1085 nonzeros
Variable types: 264 continuous, 0 integer (0 binary)

Root relaxation: objective 1.993518e+01, 300 iterations, 0.00 seconds

    Nodes    |    Current Node    |     Objective Bounds      |     Work
 Expl Unexpl |  Obj  Depth IntInf | Incumbent    BestBd   Gap | It/Node Time

*    0     0               0      19.9351752   19.93518  0.00%     -    0s

Explored 0 nodes (300 simplex iterations) in 0.02 seconds
Thread count was 8 (of 8 available processors)

Optimal solution found (tolerance 1.00e-04)
Best objective 1.993517515980e+01, best bound 1.993517515980e+01, gap 0.0%

Wrote requested result file 'H1\instance28\\Results28EC_Sol5.lp'

